54 67 7 76 33 60 82 12 73 31 93 94 46 97 56 58 30 85 49 36 23 81 4 96 37 20 55 43 38 8 18 41 48 80 24 26 13 28 83 45 27 50 61 34 9 79 90 0 65 39 92 17 44 11 64 10 95 88 84 14 91 51 21 77 57 66 99 2 63 52 68 1 15 42 78 98 89 16 70 72 75 86 59 6 53 35 5 3 19 62 22 29 69 74 47 32 87 40 25 71